param set_len = 38;
param target_sum = 9968743567;
param values := [1] 902563083 [2] 618879921 [3] 755200063 [4] 149742590 [5] 584210693 [6] 173111890 [7] 300930559 [8] 243853614 [9] 307438931 [10] 920488501 [11] 959443686 [12] 476697625 [13] 139358868 [14] 250761597 [15] 321952700 [16] 1072325946 [17] 481638117 [18] 18952136 [19] 922428053 [20] 899616883 [21] 420188140 [22] 809974512 [23] 701080988 [24] 943017380 [25] 145639508 [26] 989409027 [27] 921383429 [28] 265389443 [29] 523245787 [30] 757739349 [31] 1014829468 [32] 505532965 [33] 327614316 [34] 65725993 [35] 644966108 [36] 981926952 [37] 55682379 [38] 432286501 ;
